Traveling Salesman Problem/TSP_generados/Aleatorio1621103241_6.tsp
NAME: Aleatorio1621103241_6.tsp
COMMENT: Randomly generated scenario
TYPE: TSP
DIMENSION: 6
EDGE_WEIGHT_TYPE: ATT
NODE_COORD_SECTION
1 29.54 33.23
2 3.41 44.42
3 48.19 35.99
4 44.53 11.49
5 47.57 47.99
6 39.05 29.99
