Traveling Salesman Problem/TSP_generados/Aleatorio1621103241_6.opt.tour
NAME: Aleatorio1621103241_6.opt.tour
COMMENT: Optimal solution for Aleatorio1621103241_6 (138.85850826195198)
TYPE: TOUR
DIMENSION: 6
TOUR_SECTION
1 6 4 3 5 2
-1
EOF
